64
Po
Po      0.000000      0.000000      0.000000
Po      0.000000      0.000000      3.359000
Po      0.000000      0.000000      6.718000
Po      0.000000      0.000000     10.077000
Po      0.000000      3.359000      0.000000
Po      0.000000      3.359000      3.359000
Po      0.000000      3.359000      6.718000
Po      0.000000      3.359000     10.077000
Po      0.000000      6.718000      0.000000
Po      0.000000      6.718000      3.359000
Po      0.000000      6.718000      6.718000
Po      0.000000      6.718000     10.077000
Po      0.000000     10.077000      0.000000
Po      0.000000     10.077000      3.359000
Po      0.000000     10.077000      6.718000
Po      0.000000     10.077000     10.077000
Po      3.359000      0.000000      0.000000
Po      3.359000      0.000000      3.359000
Po      3.359000      0.000000      6.718000
Po      3.359000      0.000000     10.077000
Po      3.359000      3.359000      0.000000
Po      3.359000      3.359000      3.359000
Po      3.359000      3.359000      6.718000
Po      3.359000      3.359000     10.077000
Po      3.359000      6.718000      0.000000
Po      3.359000      6.718000      3.359000
Po      3.359000      6.718000      6.718000
Po      3.359000      6.718000     10.077000
Po      3.359000     10.077000      0.000000
Po      3.359000     10.077000      3.359000
Po      3.359000     10.077000      6.718000
Po      3.359000     10.077000     10.077000
Po      6.718000      0.000000      0.000000
Po      6.718000      0.000000      3.359000
Po      6.718000      0.000000      6.718000
Po      6.718000      0.000000     10.077000
Po      6.718000      3.359000      0.000000
Po      6.718000      3.359000      3.359000
Po      6.718000      3.359000      6.718000
Po      6.718000      3.359000     10.077000
Po      6.718000      6.718000      0.000000
Po      6.718000      6.718000      3.359000
Po      6.718000      6.718000      6.718000
Po      6.718000      6.718000     10.077000
Po      6.718000     10.077000      0.000000
Po      6.718000     10.077000      3.359000
Po      6.718000     10.077000      6.718000
Po      6.718000     10.077000     10.077000
Po     10.077000      0.000000      0.000000
Po     10.077000      0.000000      3.359000
Po     10.077000      0.000000      6.718000
Po     10.077000      0.000000     10.077000
Po     10.077000      3.359000      0.000000
Po     10.077000      3.359000      3.359000
Po     10.077000      3.359000      6.718000
Po     10.077000      3.359000     10.077000
Po     10.077000      6.718000      0.000000
Po     10.077000      6.718000      3.359000
Po     10.077000      6.718000      6.718000
Po     10.077000      6.718000     10.077000
Po     10.077000     10.077000      0.000000
Po     10.077000     10.077000      3.359000
Po     10.077000     10.077000      6.718000
Po     10.077000     10.077000     10.077000
